
n_res = 4;
rcap = [68, 78, 592, 576];
rtype = [1, 1, 2, 2];
n_tasks = 100;
modes =  [{1, 2, 3}, {4, 5, 6}, {7, 8, 9}, {10, 11, 12}, {13, 14, 15}, {16, 17, 18}, {19, 20, 21}, {22, 23, 24}, {25, 26, 27}, {28, 29, 30}, {31, 32, 33}, {34, 35, 36}, {37, 38, 39}, {40, 41, 42}, {43, 44, 45}, {46, 47, 48}, {49, 50, 51}, {52, 53, 54}, {55, 56, 57}, {58, 59, 60}, {61, 62, 63}, {64, 65, 66}, {67, 68, 69}, {70, 71, 72}, {73, 74, 75}, {76, 77, 78}, {79, 80, 81}, {82, 83, 84}, {85, 86, 87}, {88, 89, 90}, {91, 92, 93}, {94, 95, 96}, {97, 98, 99}, {100, 101, 102}, {103, 104, 105}, {106, 107, 108}, {109, 110, 111}, {112, 113, 114}, {115, 116, 117}, {118, 119, 120}, {121, 122, 123}, {124, 125, 126}, {127, 128, 129}, {130, 131, 132}, {133, 134, 135}, {136, 137, 138}, {139, 140, 141}, {142, 143, 144}, {145, 146, 147}, {148, 149, 150}, {151, 152, 153}, {154, 155, 156}, {157, 158, 159}, {160, 161, 162}, {163, 164, 165}, {166, 167, 168}, {169, 170, 171}, {172, 173, 174}, {175, 176, 177}, {178, 179, 180}, {181, 182, 183}, {184, 185, 186}, {187, 188, 189}, {190, 191, 192}, {193, 194, 195}, {196, 197, 198}, {199, 200, 201}, {202, 203, 204}, {205, 206, 207}, {208, 209, 210}, {211, 212, 213}, {214, 215, 216}, {217, 218, 219}, {220, 221, 222}, {223, 224, 225}, {226, 227, 228}, {229, 230, 231}, {232, 233, 234}, {235, 236, 237}, {238, 239, 240}, {241, 242, 243}, {244, 245, 246}, {247, 248, 249}, {250, 251, 252}, {253, 254, 255}, {256, 257, 258}, {259, 260, 261}, {262, 263, 264}, {265, 266, 267}, {268, 269, 270}, {271, 272, 273}, {274, 275, 276}, {277, 278, 279}, {280, 281, 282}, {283, 284, 285}, {286, 287, 288}, {289, 290, 291}, {292, 293, 294}, {295, 296, 297}, {298, 299, 300}];
succ =  [{98, 97, 71, 69, 57, 56, 55, 53, 52, 42, 39, 37, 34, 31, 27, 24}, {97, 94, 70, 67, 65, 64, 62, 61, 59, 51, 49, 47, 44, 41, 21}, {100, 99, 97, 96, 94, 92, 87, 71, 68, 66, 65, 62, 61, 60, 59, 52, 51, 49, 39, 33}, {98, 94, 71, 70, 69, 66, 65, 64, 60, 59, 56, 53, 52, 51, 49, 44, 42, 38}, {99, 98, 89, 70, 67, 56, 42, 27, 15}, {100, 99, 98, 97, 70, 68, 66, 59, 52, 51, 46, 35, 34, 33}, {100, 96, 93, 92, 91, 87, 69, 67, 66, 65, 61, 60, 59, 44, 42, 40, 39}, {100, 97, 94, 92, 91, 90, 87, 71, 70, 61, 60, 59, 58, 47, 46, 40, 33}, {99, 98, 91, 76, 70, 67, 66, 63, 61, 54, 53, 47, 42, 41}, {97, 96, 68, 67, 66, 65, 60, 53, 51, 49, 47, 40, 32}, {96, 94, 93, 91, 90, 69, 68, 60, 59, 57, 53, 48, 40, 39}, {99, 97, 96, 95, 93, 92, 89, 88, 86, 85, 83, 79, 70, 68, 67, 59, 54, 49, 43}, {99, 98, 96, 95, 91, 88, 69, 68, 61, 34, 32}, {98, 97, 96, 93, 92, 88, 87, 84, 71, 68, 64, 58, 55, 49, 42}, {93, 92, 91, 90, 88, 71, 69, 68, 65, 55, 51, 32}, {98, 97, 91, 87, 84, 81, 79, 76, 67, 59, 41, 39}, {97, 95, 93, 92, 90, 86, 85, 84, 83, 80, 79, 71, 70, 68, 65, 64, 59, 57}, {98, 96, 93, 92, 90, 87, 86, 85, 84, 80, 75, 69, 68, 66, 65, 64, 59, 57}, {95, 93, 91, 88, 87, 84, 79, 69, 67, 64, 60, 59, 51, 42}, {91, 90, 84, 83, 81, 79, 78, 77, 71, 62, 55, 54, 41}, {100, 95, 91, 90, 88, 87, 86, 85, 84, 82, 81, 78, 76, 74, 68, 66, 60, 52}, {100, 97, 93, 92, 88, 87, 83, 82, 81, 80, 79, 71, 69, 63, 61, 60, 55}, {93, 92, 88, 87, 86, 80, 67, 66, 64, 60, 59, 44}, {95, 93, 91, 90, 88, 87, 86, 84, 83, 80, 79, 76, 70, 61, 60, 59}, {95, 92, 90, 89, 87, 86, 85, 84, 83, 80, 79, 77, 75, 74, 72, 65, 59}, {92, 88, 83, 79, 76, 72, 70, 69, 68, 64, 43}, {96, 95, 88, 87, 86, 85, 84, 83, 82, 81, 79, 78, 76, 75, 72, 68, 64}, {99, 94, 93, 91, 90, 87, 86, 83, 79, 78, 77, 76, 74, 71, 69, 60}, {89, 88, 87, 85, 84, 80, 76, 68, 59, 42}, {97, 93, 92, 88, 82, 81, 79, 78, 77, 76, 70, 67, 64, 60}, {93, 91, 87, 86, 84, 82, 80, 78, 76, 68, 67, 64, 60}, {94, 87, 86, 85, 84, 83, 80, 79, 77, 75, 72, 64, 59}, {95, 89, 88, 86, 85, 84, 83, 82, 80, 78, 74, 73, 67}, {94, 92, 90, 82, 80, 77, 75, 74, 73, 67, 65}, {91, 88, 86, 84, 82, 80, 77, 67, 64, 61}, {99, 94, 90, 89, 85, 78, 77, 76, 75, 72, 64}, {91, 89, 87, 84, 83, 78, 75, 74, 67, 66}, {91, 87, 85, 83, 80, 79, 75, 73, 57}, {95, 86, 85, 83, 78, 77, 72, 70, 64}, {88, 85, 81, 80, 79, 77, 75, 74, 73, 72}, {96, 93, 92, 86, 82, 80, 75, 74, 69}, {86, 83, 82, 81, 78, 77, 75, 74, 72}, {91, 90, 87, 84, 81, 78, 75, 74, 73}, {85, 84, 81, 79, 76, 73, 72, 68}, {98, 87, 81, 77, 76, 75, 74, 69}, {80, 78, 77, 74, 67, 65}, {89, 83, 79, 77, 75, 74, 73, 72}, {92, 83, 81, 79, 76, 73, 67}, {91, 90, 80, 77, 76, 75, 73}, {89, 82, 80, 78, 73, 72}, {85, 80, 78, 77, 76}, {93, 83, 80, 79, 75}, {92, 87, 82, 81, 74}, {94, 72, 64}, {94, 76, 75, 74}, {90, 82, 81, 75}, {88, 76, 67}, {83, 79, 67}, {82, 78, 73}, {89, 75, 72}, {85, 74, 72}, {89, 76, 74}, {90, 84, 75}, {74, 73}, {81, 76}, {79, 73}, {72}, {77}, {73}, {75}, {72}, {}, {}, {}, {}, {}, {}, {}, {}, {}, {}, {}, {}, {}, {}, {}, {}, {}, {}, {}, {}, {}, {}, {}, {}, {}, {}, {}, {}, {}];
n_opt = 300;
dur = [1, 4, 10, 6, 7, 8, 4, 5, 9, 1, 3, 8, 4, 5, 9, 7, 9, 10, 1, 2, 7, 7, 8, 9, 6, 7, 8, 3, 5, 9, 2, 5, 6, 5, 6, 7, 4, 5, 8, 4, 8, 9, 3, 7, 9, 5, 7, 9, 5, 9, 10, 1, 8, 9, 2, 5, 6, 1, 8, 9, 5, 7, 9, 1, 5, 10, 2, 5, 9, 2, 3, 4, 3, 6, 8, 4, 6, 9, 5, 8, 9, 5, 7, 9, 6, 7, 8, 1, 4, 10, 2, 3, 4, 7, 8, 9, 2, 3, 4, 1, 2, 9, 2, 5, 6, 3, 6, 7, 3, 6, 8, 1, 4, 10, 3, 4, 8, 1, 2, 10, 3, 5, 6, 5, 6, 7, 5, 6, 7, 5, 6, 8, 5, 6, 10, 4, 6, 7, 4, 5, 9, 1, 6, 9, 1, 6, 7, 2, 5, 10, 1, 3, 5, 6, 7, 8, 1, 5, 8, 2, 3, 4, 1, 9, 10, 3, 5, 7, 2, 9, 10, 4, 6, 7, 7, 8, 9, 4, 8, 10, 8, 9, 10, 2, 3, 4, 6, 7, 8, 3, 9, 10, 3, 4, 9, 1, 9, 10, 1, 4, 10, 3, 4, 10, 4, 5, 9, 5, 6, 9, 3, 9, 10, 2, 4, 7, 5, 8, 9, 1, 3, 6, 2, 7, 10, 2, 6, 7, 3, 8, 9, 3, 4, 5, 3, 7, 9, 4, 9, 10, 1, 6, 8, 4, 6, 10, 1, 4, 8, 5, 8, 10, 2, 3, 4, 1, 3, 6, 4, 6, 9, 1, 2, 8, 4, 6, 8, 3, 4, 6, 4, 7, 9, 5, 6, 8, 1, 4, 5, 1, 3, 7, 5, 6, 7, 4, 6, 8, 3, 9, 10, 6, 7, 8, 2, 4, 10, 4, 7, 10];
rreq = [|4, 4, 4, 3, 2, 2, 4, 3, 2, 3, 2, 2, 2, 1, 1, 4, 2, 2, 1, 1, 1, 1, 1, 1, 2, 2, 2, 3, 3, 2, 2, 1, 1, 5, 4, 3, 2, 2, 1, 3, 3, 3, 3, 2, 2, 4, 2, 2, 4, 3, 1, 1, 1, 1, 4, 4, 4, 3, 1, 1, 5, 4, 4, 5, 3, 3, 1, 1, 1, 2, 2, 2, 3, 3, 3, 3, 3, 3, 3, 2, 2, 3, 3, 3, 4, 3, 3, 4, 3, 2, 4, 3, 2, 4, 3, 1, 4, 4, 3, 4, 3, 2, 5, 3, 2, 3, 3, 3, 5, 3, 1, 3, 3, 2, 3, 3, 2, 2, 1, 1, 4, 4, 3, 4, 3, 3, 3, 3, 3, 4, 3, 2, 3, 3, 2, 5, 4, 4, 5, 5, 5, 5, 5, 5, 4, 3, 2, 1, 1, 1, 5, 5, 5, 5, 4, 3, 2, 1, 1, 4, 2, 2, 2, 1, 1, 4, 4, 4, 4, 4, 4, 3, 2, 2, 4, 2, 2, 3, 2, 2, 5, 3, 3, 3, 3, 2, 4, 3, 2, 1, 1, 1, 3, 3, 3, 4, 4, 4, 4, 4, 3, 4, 4, 3, 2, 1, 1, 3, 3, 3, 4, 4, 4, 1, 1, 1, 5, 5, 5, 5, 5, 5, 2, 1, 1, 3, 2, 1, 2, 1, 1, 4, 3, 2, 4, 4, 3, 2, 2, 2, 2, 1, 1, 3, 3, 1, 2, 1, 1, 4, 2, 2, 5, 3, 3, 4, 3, 3, 2, 2, 2, 2, 1, 1, 3, 3, 3, 3, 3, 3, 4, 3, 3, 3, 2, 2, 4, 2, 2, 1, 1, 1, 5, 4, 3, 5, 3, 3, 4, 3, 2, 2, 1, 1, 5, 5, 5, 4, 4, 4
 |4, 3, 1, 3, 2, 1, 4, 4, 3, 3, 3, 1, 3, 2, 1, 4, 4, 4, 4, 3, 3, 3, 1, 1, 3, 3, 3, 5, 4, 4, 3, 2, 2, 4, 3, 3, 1, 1, 1, 5, 5, 5, 4, 4, 4, 2, 2, 2, 4, 4, 4, 5, 5, 5, 5, 5, 5, 4, 4, 4, 4, 2, 2, 4, 2, 2, 4, 4, 3, 4, 4, 4, 4, 4, 4, 5, 5, 5, 3, 3, 2, 4, 2, 2, 3, 3, 1, 1, 1, 1, 1, 1, 1, 5, 4, 4, 5, 4, 4, 5, 4, 4, 2, 2, 2, 3, 3, 1, 3, 3, 2, 3, 2, 1, 3, 3, 2, 5, 3, 2, 5, 4, 2, 2, 1, 1, 4, 4, 4, 2, 1, 1, 3, 2, 2, 3, 2, 1, 4, 3, 3, 2, 2, 2, 5, 5, 5, 3, 3, 3, 4, 4, 3, 3, 3, 3, 2, 2, 2, 3, 3, 3, 5, 4, 4, 4, 4, 4, 3, 3, 3, 4, 4, 4, 4, 2, 2, 4, 3, 2, 4, 3, 3, 5, 4, 4, 3, 3, 3, 3, 3, 3, 5, 3, 2, 5, 5, 5, 3, 3, 2, 5, 5, 5, 1, 1, 1, 1, 1, 1, 5, 5, 5, 5, 5, 5, 4, 4, 4, 4, 4, 4, 3, 2, 1, 4, 3, 1, 1, 1, 1, 4, 4, 3, 4, 3, 2, 4, 4, 4, 5, 4, 4, 5, 3, 3, 3, 2, 2, 2, 1, 1, 2, 1, 1, 3, 3, 3, 4, 2, 2, 5, 4, 4, 4, 3, 3, 2, 1, 1, 1, 1, 1, 3, 2, 2, 5, 5, 5, 5, 4, 4, 5, 4, 4, 5, 4, 4, 2, 1, 1, 2, 1, 1, 4, 3, 1, 3, 1, 1
 |6, 6, 5, 10, 6, 2, 8, 6, 3, 8, 6, 6, 6, 6, 6, 9, 5, 4, 8, 4, 3, 6, 4, 2, 1, 1, 1, 5, 4, 3, 10, 9, 7, 5, 4, 2, 8, 5, 3, 7, 6, 5, 5, 4, 2, 4, 4, 3, 4, 4, 4, 7, 6, 5, 8, 8, 8, 10, 8, 7, 6, 4, 4, 8, 3, 1, 6, 4, 4, 6, 5, 3, 9, 8, 6, 6, 6, 6, 8, 6, 1, 7, 6, 5, 4, 3, 3, 7, 5, 4, 7, 7, 6, 7, 5, 4, 8, 6, 6, 3, 3, 2, 4, 2, 2, 10, 8, 7, 9, 9, 9, 7, 6, 6, 10, 7, 5, 10, 10, 10, 5, 2, 1, 5, 4, 3, 7, 3, 1, 5, 3, 3, 8, 8, 6, 4, 4, 1, 10, 9, 9, 9, 6, 5, 5, 4, 3, 10, 10, 10, 7, 3, 1, 3, 2, 2, 8, 8, 6, 8, 5, 3, 8, 4, 3, 9, 8, 8, 6, 3, 2, 8, 8, 7, 8, 5, 3, 6, 5, 3, 10, 9, 9, 9, 5, 4, 6, 5, 4, 2, 2, 2, 5, 3, 3, 7, 4, 3, 6, 4, 4, 4, 4, 3, 9, 9, 9, 5, 3, 3, 4, 4, 2, 9, 7, 5, 4, 2, 1, 5, 5, 4, 3, 3, 3, 1, 1, 1, 9, 8, 4, 5, 5, 3, 5, 3, 1, 5, 4, 4, 8, 8, 6, 6, 6, 6, 5, 5, 5, 4, 2, 1, 7, 6, 5, 8, 5, 3, 6, 4, 2, 7, 7, 5, 10, 8, 8, 5, 3, 2, 6, 5, 5, 6, 5, 3, 9, 5, 4, 3, 2, 1, 8, 8, 8, 6, 4, 2, 4, 2, 1, 6, 4, 4, 6, 5, 4, 6, 5, 4
 |4, 4, 4, 5, 4, 3, 8, 8, 8, 6, 4, 2, 5, 3, 3, 9, 5, 3, 9, 6, 1, 8, 6, 4, 7, 6, 2, 8, 8, 7, 8, 7, 7, 4, 2, 2, 8, 5, 3, 6, 6, 6, 5, 4, 3, 8, 6, 6, 5, 5, 5, 5, 5, 5, 9, 8, 7, 6, 6, 6, 6, 5, 4, 8, 4, 3, 5, 3, 3, 6, 6, 4, 4, 3, 2, 9, 6, 4, 7, 5, 3, 5, 5, 2, 6, 4, 3, 8, 8, 8, 3, 3, 3, 9, 7, 6, 8, 6, 4, 9, 4, 3, 5, 5, 1, 7, 6, 4, 9, 9, 9, 8, 8, 4, 3, 2, 2, 6, 5, 4, 6, 6, 6, 4, 2, 1, 10, 7, 4, 5, 5, 5, 2, 2, 2, 5, 4, 3, 1, 2, 1, 6, 5, 5, 7, 7, 7, 10, 9, 8, 5, 4, 4, 9, 7, 5, 4, 3, 2, 8, 5, 2, 8, 7, 6, 7, 5, 4, 8, 7, 5, 9, 8, 6, 4, 4, 1, 3, 2, 2, 7, 7, 6, 4, 4, 4, 6, 5, 5, 7, 6, 5, 3, 3, 3, 5, 3, 1, 5, 4, 3, 6, 5, 4, 4, 4, 3, 10, 8, 6, 6, 5, 5, 4, 4, 4, 5, 4, 3, 6, 5, 6, 2, 2, 2, 6, 5, 3, 8, 6, 5, 9, 6, 6, 10, 9, 8, 9, 7, 6, 5, 2, 2, 9, 8, 8, 4, 3, 2, 4, 4, 3, 6, 4, 2, 8, 7, 7, 8, 7, 6, 8, 8, 7, 7, 7, 5, 2, 2, 2, 7, 4, 2, 8, 5, 4, 10, 6, 4, 6, 6, 3, 6, 6, 6, 7, 4, 1, 4, 3, 2, 7, 7, 6, 4, 2, 1, 5, 4, 3|];